p = 6;
s=2;
n =3;
ore = 5;
days = 2;
capAule =[100,150,200];
k =3;

numInseg=[|
2,2|
1,3|
3,1|
|];

oreInsg = [4,2,4,2,5,3, 4,2,4,3,2,4];

pInsg=[|
5,4,11,3,9,7|
2,8,6,1,10,12,|
|];

numStud = [150,100,80,190,50,130, 50,150,50,170,190,120];